p cnf 32 344
1 5 9 13 17 21 25 29 0
2 6 10 14 18 22 26 30 0
3 7 11 15 19 23 27 31 0
4 8 12 16 20 24 28 32 0
-1 -6 0
-1 -7 0
-1 -8 0
-2 -7 0
-2 -8 0
-3 -8 0
-1 -10 0
-1 -11 0
-1 -12 0
-2 -11 0
-2 -12 0
-3 -12 0
-1 -14 0
-1 -15 0
-1 -16 0
-2 -15 0
-2 -16 0
-3 -16 0
-1 -18 0
-1 -19 0
-1 -20 0
-2 -19 0
-2 -20 0
-3 -20 0
-1 -22 0
-1 -23 0
-1 -24 0
-2 -23 0
-2 -24 0
-3 -24 0
-1 -26 0
-1 -27 0
-1 -28 0
-2 -27 0
-2 -28 0
-3 -28 0
-1 -30 0
-1 -31 0
-1 -32 0
-2 -31 0
-2 -32 0
-3 -32 0
-5 -2 0
-5 -3 0
-5 -4 0
-6 -3 0
-6 -4 0
-7 -4 0
-5 -10 0
-5 -11 0
-5 -12 0
-6 -11 0
-6 -12 0
-7 -12 0
-9 -2 0
-9 -3 0
-9 -4 0
-10 -3 0
-10 -4 0
-11 -4 0
-9 -6 0
-9 -7 0
-9 -8 0
-10 -7 0
-10 -8 0
-11 -8 0
-9 -14 0
-9 -15 0
-9 -16 0
-10 -15 0
-10 -16 0
-11 -16 0
-9 -26 0
-9 -27 0
-9 -28 0
-10 -27 0
-10 -28 0
-11 -28 0
-9 -30 0
-9 -31 0
-9 -32 0
-10 -31 0
-10 -32 0
-11 -32 0
-13 -2 0
-13 -3 0
-13 -4 0
-14 -3 0
-14 -4 0
-15 -4 0
-13 -10 0
-13 -11 0
-13 -12 0
-14 -11 0
-14 -12 0
-15 -12 0
-13 -26 0
-13 -27 0
-13 -28 0
-14 -27 0
-14 -28 0
-15 -28 0
-17 -2 0
-17 -3 0
-17 -4 0
-18 -3 0
-18 -4 0
-19 -4 0
-17 -22 0
-17 -23 0
-17 -24 0
-18 -23 0
-18 -24 0
-19 -24 0
-17 -26 0
-17 -27 0
-17 -28 0
-18 -27 0
-18 -28 0
-19 -28 0
-17 -30 0
-17 -31 0
-17 -32 0
-18 -31 0
-18 -32 0
-19 -32 0
-21 -2 0
-21 -3 0
-21 -4 0
-22 -3 0
-22 -4 0
-23 -4 0
-21 -18 0
-21 -19 0
-21 -20 0
-22 -19 0
-22 -20 0
-23 -20 0
-25 -2 0
-25 -3 0
-25 -4 0
-26 -3 0
-26 -4 0
-27 -4 0
-25 -10 0
-25 -11 0
-25 -12 0
-26 -11 0
-26 -12 0
-27 -12 0
-25 -14 0
-25 -15 0
-25 -16 0
-26 -15 0
-26 -16 0
-27 -16 0
-25 -18 0
-25 -19 0
-25 -20 0
-26 -19 0
-26 -20 0
-27 -20 0
-29 -2 0
-29 -3 0
-29 -4 0
-30 -3 0
-30 -4 0
-31 -4 0
-29 -10 0
-29 -11 0
-29 -12 0
-30 -11 0
-30 -12 0
-31 -12 0
-29 -18 0
-29 -19 0
-29 -20 0
-30 -19 0
-30 -20 0
-31 -20 0
-1 -2 0
-5 -6 0
-9 -10 0
-13 -14 0
-17 -18 0
-21 -22 0
-25 -26 0
-29 -30 0
-1 -3 0
-5 -7 0
-9 -11 0
-13 -15 0
-17 -19 0
-21 -23 0
-25 -27 0
-29 -31 0
-1 -4 0
-5 -8 0
-9 -12 0
-13 -16 0
-17 -20 0
-21 -24 0
-25 -28 0
-29 -32 0
-2 -3 0
-6 -7 0
-10 -11 0
-14 -15 0
-18 -19 0
-22 -23 0
-26 -27 0
-30 -31 0
-2 -4 0
-6 -8 0
-10 -12 0
-14 -16 0
-18 -20 0
-22 -24 0
-26 -28 0
-30 -32 0
-3 -4 0
-7 -8 0
-11 -12 0
-15 -16 0
-19 -20 0
-23 -24 0
-27 -28 0
-31 -32 0
-1 -5 0
-1 -9 0
-1 -13 0
-1 -17 0
-1 -21 0
-1 -25 0
-1 -29 0
-5 -9 0
-5 -13 0
-5 -17 0
-5 -21 0
-5 -25 0
-5 -29 0
-9 -13 0
-9 -17 0
-9 -21 0
-9 -25 0
-9 -29 0
-13 -17 0
-13 -21 0
-13 -25 0
-13 -29 0
-17 -21 0
-17 -25 0
-17 -29 0
-21 -25 0
-21 -29 0
-25 -29 0
-2 -6 0
-2 -10 0
-2 -14 0
-2 -18 0
-2 -22 0
-2 -26 0
-2 -30 0
-6 -10 0
-6 -14 0
-6 -18 0
-6 -22 0
-6 -26 0
-6 -30 0
-10 -14 0
-10 -18 0
-10 -22 0
-10 -26 0
-10 -30 0
-14 -18 0
-14 -22 0
-14 -26 0
-14 -30 0
-18 -22 0
-18 -26 0
-18 -30 0
-22 -26 0
-22 -30 0
-26 -30 0
-3 -7 0
-3 -11 0
-3 -15 0
-3 -19 0
-3 -23 0
-3 -27 0
-3 -31 0
-7 -11 0
-7 -15 0
-7 -19 0
-7 -23 0
-7 -27 0
-7 -31 0
-11 -15 0
-11 -19 0
-11 -23 0
-11 -27 0
-11 -31 0
-15 -19 0
-15 -23 0
-15 -27 0
-15 -31 0
-19 -23 0
-19 -27 0
-19 -31 0
-23 -27 0
-23 -31 0
-27 -31 0
-4 -8 0
-4 -12 0
-4 -16 0
-4 -20 0
-4 -24 0
-4 -28 0
-4 -32 0
-8 -12 0
-8 -16 0
-8 -20 0
-8 -24 0
-8 -28 0
-8 -32 0
-12 -16 0
-12 -20 0
-12 -24 0
-12 -28 0
-12 -32 0
-16 -20 0
-16 -24 0
-16 -28 0
-16 -32 0
-20 -24 0
-20 -28 0
-20 -32 0
-24 -28 0
-24 -32 0
-28 -32 0
